(declare-fun p1x () Real)
(declare-fun p1y () Real)
(declare-fun p1z () Real)
(declare-fun dummy () Real)
(define-fun h () Real 20.0)
(assert (>= p1x 1))
(assert (>= p1y 0))
(assert (>= p1z 4))
(assert (<= p1x 18))
(assert (<= p1y 16))
(assert (<= p1z (- h 12)))
(check-sat)
(get-model)
